p cnf 95 335
-4 2 0
-4 3 0
-2 -3 4 0
-6 -4 0
-6 5 0
4 -5 6 0
-7 1 0
-7 -6 0
-1 6 7 0
-9 2 0
-9 -6 0
-2 6 9 0
8 -9 -10 0
-8 9 -10 0
8 9 10 0
-8 -9 10 0
6 10 -11 0
-6 -10 -11 0
6 -10 11 0
-6 10 11 0
-15 -13 0
-15 14 0
13 -14 15 0
-16 15 0
-16 2 0
-15 -2 16 0
-17 -12 0
-17 16 0
12 -16 17 0
-18 11 0
-18 17 0
-11 -17 18 0
20 8 0
20 -19 0
-8 19 -20 0
-18 -20 -21 0
18 20 -21 0
-18 20 21 0
18 -20 21 0
-7 -21 -22 0
7 21 -22 0
-7 21 22 0
7 -21 22 0
23 -12 0
23 4 0
12 -4 -23 0
25 -18 0
25 24 0
18 -24 -25 0
23 -25 -26 0
-23 25 -26 0
23 25 26 0
-23 -25 26 0
27 20 0
27 26 0
-20 -26 -27 0
-28 -3 0
-28 -20 0
3 20 28 0
29 27 0
29 28 0
-27 -28 -29 0
30 -12 0
30 23 0
12 -23 -30 0
-32 -30 0
-32 -31 0
30 31 32 0
33 -23 0
33 8 0
23 -8 -33 0
-34 32 0
-34 33 0
-32 -33 34 0
29 -34 -35 0
-29 34 -35 0
29 34 35 0
-29 -34 35 0
-22 35 -36 0
22 -35 -36 0
-22 -35 36 0
22 35 36 0
-37 -5 0
-37 31 0
5 -31 37 0
-14 -15 -38 0
14 15 -38 0
-14 15 38 0
14 -15 38 0
-39 -37 0
-39 -38 0
37 38 39 0
40 9 -41 0
-40 -9 -41 0
40 -9 41 0
-40 9 41 0
-41 -11 -42 0
41 11 -42 0
-41 11 42 0
41 -11 42 0
-43 39 0
-43 -42 0
-39 42 43 0
-41 -17 -44 0
41 17 -44 0
-41 17 44 0
41 -17 44 0
45 -5 0
45 -4 0
5 4 -45 0
-46 -44 0
-46 45 0
44 -45 46 0
-47 -12 0
-47 15 0
12 -15 47 0
-47 12 -48 0
47 -12 -48 0
-47 -12 48 0
47 12 48 0
-49 -16 0
-49 48 0
16 -48 49 0
50 -49 0
50 -4 0
49 4 -50 0
-51 50 0
-51 18 0
-50 -18 51 0
46 -51 -52 0
-46 51 -52 0
46 51 52 0
-46 -51 52 0
43 52 -53 0
-43 -52 -53 0
43 -52 53 0
-43 52 53 0
54 -13 0
54 -9 0
13 9 -54 0
-55 13 0
-55 54 0
-13 -54 55 0
-56 -40 0
-56 -4 0
40 4 56 0
-57 3 0
-57 56 0
-3 -56 57 0
58 55 0
58 57 0
-55 -57 -58 0
23 14 -59 0
-23 -14 -59 0
23 -14 59 0
-23 14 59 0
60 -58 0
60 -59 0
58 59 -60 0
61 -54 0
61 38 0
54 -38 -61 0
-13 -8 -62 0
13 8 -62 0
-13 8 62 0
13 -8 62 0
-63 61 0
-63 -62 0
-61 62 63 0
64 -60 0
64 -63 0
60 63 -64 0
-57 65 -66 0
57 -65 -66 0
-57 -65 66 0
57 65 66 0
-64 66 -67 0
64 -66 -67 0
-64 -66 67 0
64 66 67 0
-68 54 0
-68 -19 0
-54 19 68 0
-69 57 0
-69 -2 0
-57 2 69 0
-70 -31 0
-70 69 0
31 -69 70 0
70 20 -71 0
-70 -20 -71 0
70 -20 71 0
-70 20 71 0
71 31 -72 0
-71 -31 -72 0
71 -31 72 0
-71 31 72 0
73 -8 0
73 -2 0
8 2 -73 0
74 -10 0
74 73 0
10 -73 -74 0
72 -74 -75 0
-72 74 -75 0
72 74 75 0
-72 -74 75 0
-68 -75 -76 0
68 75 -76 0
-68 75 76 0
68 -75 76 0
67 -76 -77 0
-67 76 -77 0
67 76 77 0
-67 -76 77 0
-8 69 -78 0
8 -69 -78 0
-8 -69 78 0
8 69 78 0
79 -78 0
79 -14 0
78 14 -79 0
80 11 0
80 19 0
-11 -19 -80 0
-81 56 0
-81 -80 0
-56 80 81 0
-9 37 -82 0
9 -37 -82 0
-9 -37 82 0
9 37 82 0
-81 82 -83 0
81 -82 -83 0
-81 -82 83 0
81 82 83 0
-84 -79 0
-84 -83 0
79 83 84 0
77 -84 -85 0
-77 84 -85 0
77 84 85 0
-77 -84 85 0
8 24 -86 0
-8 -24 -86 0
8 -24 86 0
-8 24 86 0
86 -78 -87 0
-86 78 -87 0
86 78 87 0
-86 -78 87 0
-88 12 -89 0
88 -12 -89 0
-88 -12 89 0
88 12 89 0
87 89 -90 0
-87 -89 -90 0
87 -89 90 0
-87 89 90 0
-85 -90 -91 0
85 90 -91 0
-85 90 91 0
85 -90 91 0
11 38 -92 0
-11 -38 -92 0
11 -38 92 0
-11 38 92 0
-91 92 -93 0
91 -92 -93 0
-91 -92 93 0
91 92 93 0
-94 53 0
-94 93 0
-53 -93 94 0
-36 94 -95 0
36 -94 -95 0
-36 -94 95 0
36 94 95 0
42 -93 -49 4 44 0
-72 -54 62 -91 -15 0
-3 -38 17 62 -24 0
18 35 12 65 15 0
78 -83 10 0
50 91 -62 0
-29 89 0
50 66 -95 51 0
74 89 23 68 25 0
-8 73 -34 -6 0
31 -66 80 14 -18 0
-93 81 0
35 -13 -72 -40 0
85 -83 -77 45 0
-95 39 -14 30 -53 -11 0
-18 90 94 0
-30 77 7 -9 0
43 -24 -64 67 -31 0
7 -55 46 -34 0
30 50 27 0
83 6 -49 0
46 -58 -74 0
-36 71 -8 86 0
53 16 -86 -46 0
-24 78 -92 0
-89 75 12 23 -85 -46 0
35 4 19 0
-35 -6 0
-77 -92 0
-24 -5 -78 -16 -31 -32 0
-46 -67 87 -13 -47 -9 0
-47 -82 35 -69 65 0
-84 -93 80 -26 95 0
-80 -48 -13 0
18 -17 -23 29 39 0
-17 -91 -29 48 6 -30 0
-37 -73 88 0
-69 23 41 0
-5 16 -57 0
76 49 53 -73 13 0
30 -15 52 60 0
34 -63 -59 33 0
2 57 15 0
-4 76 83 0
77 -44 45 -58 0
-91 -5 67 89 0
19 95 32 6 0
35 -54 17 8 -74 0
57 69 -94 0
-13 -34 63 0
92 68 0
84 -5 70 0
70 -54 -19 59 0
56 -84 63 55 9 -45 0
57 -51 81 0
-9 76 -26 37 -82 59 0
95 0
